Ordonnancement/plne/source/glpk_resultat/2job/2job_3.sol
Problem:    glpsolRcpsp
Rows:       90
Columns:    27 (26 integer, 26 binary)
Non-zeros:  333
Status:     INTEGER OPTIMAL
Objective:  obj = 13 (MINimum)

   No.   Row name        Activity     Lower bound   Upper bound
------ ------------    ------------- ------------- -------------
     1 periode[1]                  5             5             = 
     2 periode[2]                  8             8             = 
     3 complet[1,1]                3                           5 
     4 complet[1,2]                2                           5 
     5 complet[1,3]                1                           5 
     6 complet[1,4]                0                           5 
     7 complet[1,5]                5                           5 
     8 complet[1,6]                0                           5 
     9 complet[1,7]                0                           5 
    10 complet[1,8]                0                           5 
    11 complet[1,9]                0                           5 
    12 complet[1,10]
                                   0                           5 
    13 complet[1,11]
                                   0                           5 
    14 complet[2,1]                8                           8 
    15 complet[2,2]                8                           8 
    16 complet[2,3]                8                           8 
    17 complet[2,4]                8                           8 
    18 complet[2,5]               -1                           8 
    19 complet[2,6]                6                           8 
    20 complet[2,7]                5                           8 
    21 complet[2,8]                4                           8 
    22 complet[2,9]                3                           8 
    23 complet[2,10]
                                   2                           8 
    24 complet[2,11]
                                   1                           8 
    25 cmax[1,1]                  12            -0               
    26 cmax[1,2]                  11            -0               
    27 cmax[1,3]                  10            -0               
    28 cmax[1,4]                   9            -0               
    29 cmax[1,5]                   8            -0               
    30 cmax[1,6]                  13            -0               
    31 cmax[1,7]                  13            -0               
    32 cmax[1,8]                  13            -0               
    33 cmax[1,9]                  13            -0               
    34 cmax[1,10]                 13            -0               
    35 cmax[1,11]                 13            -0               
    36 cmax[1,12]                 13            -0               
    37 cmax[1,13]                 13            -0               
    38 cmax[2,1]                  13            -0               
    39 cmax[2,2]                  13            -0               
    40 cmax[2,3]                  13            -0               
    41 cmax[2,4]                  13            -0               
    42 cmax[2,5]                  13            -0               
    43 cmax[2,6]                   7            -0               
    44 cmax[2,7]                   6            -0               
    45 cmax[2,8]                   5            -0               
    46 cmax[2,9]                   4            -0               
    47 cmax[2,10]                  3            -0               
    48 cmax[2,11]                  2            -0               
    49 cmax[2,12]                  1            -0               
    50 cmax[2,13]                  0            -0               
    51 ressource[1,1]
                                   1                           8 
    52 ressource[1,2]
                                   1                           8 
    53 ressource[1,3]
                                   1                           8 
    54 ressource[1,4]
                                   1                           8 
    55 ressource[1,5]
                                   1                           8 
    56 ressource[1,6]
                                   3                           8 
    57 ressource[1,7]
                                   3                           8 
    58 ressource[1,8]
                                   3                           8 
    59 ressource[1,9]
                                   3                           8 
    60 ressource[1,10]
                                   3                           8 
    61 ressource[1,11]
                                   3                           8 
    62 ressource[1,12]
                                   3                           8 
    63 ressource[1,13]
                                   3                           8 
    64 ressource[2,1]
                                   8                           8 
    65 ressource[2,2]
                                   8                           8 
    66 ressource[2,3]
                                   8                           8 
    67 ressource[2,4]
                                   8                           8 
    68 ressource[2,5]
                                   8                           8 
    69 ressource[2,6]
                                   5                           8 
    70 ressource[2,7]
                                   5                           8 
    71 ressource[2,8]
                                   5                           8 
    72 ressource[2,9]
                                   5                           8 
    73 ressource[2,10]
                                   5                           8 
    74 ressource[2,11]
                                   5                           8 
    75 ressource[2,12]
                                   5                           8 
    76 ressource[2,13]
                                   5                           8 
    77 ressource[3,1]
                                   8                          19 
    78 ressource[3,2]
                                   8                          19 
    79 ressource[3,3]
                                   8                          19 
    80 ressource[3,4]
                                   8                          19 
    81 ressource[3,5]
                                   8                          19 
    82 ressource[3,6]
                                   9                          19 
    83 ressource[3,7]
                                   9                          19 
    84 ressource[3,8]
                                   9                          19 
    85 ressource[3,9]
                                   9                          19 
    86 ressource[3,10]
                                   9                          19 
    87 ressource[3,11]
                                   9                          19 
    88 ressource[3,12]
                                   9                          19 
    89 ressource[3,13]
                                   9                          19 
    90 obj                        13                             

   No. Column name       Activity     Lower bound   Upper bound
------ ------------    ------------- ------------- -------------
     1 x[1,1]       *              1             0             1 
     2 x[1,2]       *              1             0             1 
     3 x[1,3]       *              1             0             1 
     4 x[1,4]       *              1             0             1 
     5 x[1,5]       *              1             0             1 
     6 x[1,6]       *              0             0             1 
     7 x[1,7]       *              0             0             1 
     8 x[1,8]       *              0             0             1 
     9 x[1,9]       *              0             0             1 
    10 x[1,10]      *              0             0             1 
    11 x[1,11]      *              0             0             1 
    12 x[1,12]      *              0             0             1 
    13 x[1,13]      *              0             0             1 
    14 x[2,1]       *              0             0             1 
    15 x[2,2]       *              0             0             1 
    16 x[2,3]       *              0             0             1 
    17 x[2,4]       *              0             0             1 
    18 x[2,5]       *              0             0             1 
    19 x[2,6]       *              1             0             1 
    20 x[2,7]       *              1             0             1 
    21 x[2,8]       *              1             0             1 
    22 x[2,9]       *              1             0             1 
    23 x[2,10]      *              1             0             1 
    24 x[2,11]      *              1             0             1 
    25 x[2,12]      *              1             0             1 
    26 x[2,13]      *              1             0             1 
    27 z                          13                             

Integer feasibility conditions:

KKT.PE: max.abs.err = 0.00e+00 on row 0
        max.rel.err = 0.00e+00 on row 0
        High quality

KKT.PB: max.abs.err = 0.00e+00 on row 0
        max.rel.err = 0.00e+00 on row 0
        High quality

End of output
